SEED:1216154059
1,0,0,0,21
// layer, rotation, tileID, x, y
1,0,0,1,21
1,0,1,2,21
1,0,0,3,21
1,0,0,4,21
1,0,0,5,21
1,0,1,6,21
1,0,1,7,21
1,0,0,0,22
1,0,0,1,22
1,0,0,2,22
1,0,0,3,22
1,0,1,4,22
1,0,0,5,22
1,0,0,6,22
1,0,1,7,22
1,0,0,0,23
1,0,0,1,23
1,0,2,2,23
1,0,0,3,23
1,0,2,4,23
1,0,1,5,23
1,0,0,6,23
1,0,0,7,23
0,0,12,1,20
0,0,11,1,19
0,0,12,6,20
0,0,11,6,19
1,0,2,0,24
1,0,2,1,24
1,0,2,2,24
1,0,2,3,24
1,0,2,4,24
1,0,2,5,24
1,0,2,6,24
1,0,2,7,24
1,0,2,0,25
1,0,2,1,25
1,0,2,2,25
1,0,2,3,25
1,0,2,4,25
1,0,2,5,25
1,0,2,6,25
1,0,2,7,25
1,0,2,0,26
1,0,2,1,26
1,0,2,2,26
1,0,2,3,26
1,0,2,4,26
1,0,2,5,26
1,0,2,6,26
1,0,2,7,26
1,0,2,0,27
1,0,2,1,27
1,0,2,2,27
1,0,2,3,27
1,0,2,4,27
1,0,2,5,27
1,0,2,6,27
1,0,2,7,27
1,0,2,0,28
1,0,2,1,28
1,0,2,2,28
1,0,2,3,28
1,0,2,4,28
1,0,2,5,28
1,0,2,6,28
1,0,2,7,28
1,0,2,0,29
1,0,2,1,29
1,0,2,2,29
1,0,2,3,29
1,0,2,4,29
1,0,2,5,29
1,0,2,6,29
1,0,2,7,29
1,0,2,0,30
1,0,2,1,30
1,0,2,2,30
1,0,2,3,30
1,0,2,4,30
1,0,2,5,30
1,0,2,6,30
1,0,2,7,30
1,0,2,0,31
1,0,2,1,31
1,0,2,2,31
1,0,2,3,31
1,0,2,4,31
1,0,2,5,31
1,0,2,6,31
1,0,2,7,31
1,0,4,0,32
1,0,4,1,32
1,0,4,2,32
1,0,3,3,32
1,0,3,4,32
1,0,3,5,32
1,0,3,6,32
1,0,3,7,32
1,0,4,0,33
1,0,4,1,33
1,0,4,2,33
1,0,3,3,33
1,0,3,4,33
1,0,3,5,33
1,0,3,6,33
1,0,3,7,33
1,0,4,0,34
1,0,4,1,34
1,0,4,2,34
1,0,3,3,34
1,0,3,4,34
1,0,3,5,34
1,0,3,6,34
1,0,3,7,34
1,0,3,0,35
1,0,3,1,35
1,0,3,2,35
1,0,3,3,35
1,0,3,4,35
1,0,3,5,35
1,0,3,6,35
1,0,3,7,35
1,0,3,0,36
1,0,3,1,36
1,0,3,2,36
1,0,3,3,36
1,0,5,4,36
1,0,5,5,36
1,0,5,6,36
1,0,3,7,36
1,0,3,0,37
1,0,3,1,37
1,0,3,2,37
1,0,3,3,37
1,0,5,4,37
1,0,5,5,37
1,0,5,6,37
1,0,3,7,37
1,0,3,0,38
1,0,3,1,38
1,0,3,2,38
1,0,3,3,38
1,0,5,4,38
1,0,5,5,38
1,0,5,6,38
1,0,3,7,38
1,0,3,0,39
1,0,3,1,39
1,0,3,2,39
1,0,3,3,39
1,0,3,4,39
1,0,3,5,39
1,0,3,6,39
1,0,3,7,39
1,0,4,0,40
1,0,4,1,40
1,0,4,2,40
1,0,3,3,40
1,0,3,4,40
1,0,3,5,40
1,0,3,6,40
1,0,3,7,40
1,0,4,0,41
1,0,4,1,41
1,0,4,2,41
1,0,3,3,41
1,0,3,4,41
1,0,3,5,41
1,0,3,6,41
1,0,3,7,41
1,0,4,0,42
1,0,4,1,42
1,0,4,2,42
1,0,3,3,42
1,0,3,4,42
1,0,3,5,42
1,0,3,6,42
1,0,3,7,42
1,0,3,0,43
1,0,3,1,43
1,0,3,2,43
1,0,3,3,43
1,0,3,4,43
1,0,3,5,43
1,0,3,6,43
1,0,3,7,43
1,0,3,0,44
1,0,3,1,44
1,0,3,2,44
1,0,3,3,44
1,0,5,4,44
1,0,5,5,44
1,0,5,6,44
1,0,3,7,44
1,0,3,0,45
1,0,3,1,45
1,0,3,2,45
1,0,3,3,45
1,0,5,4,45
1,0,5,5,45
1,0,5,6,45
1,0,3,7,45
1,0,3,0,46
1,0,3,1,46
1,0,3,2,46
1,0,3,3,46
1,0,5,4,46
1,0,5,5,46
1,0,5,6,46
1,0,3,7,46
1,0,3,0,47
1,0,3,1,47
1,0,3,2,47
1,0,3,3,47
1,0,3,4,47
1,0,3,5,47
1,0,3,6,47
1,0,3,7,47
1,0,1,8,20
1,0,0,9,20
1,0,0,10,20
1,0,0,11,20
1,0,0,12,20
1,0,1,13,20
1,0,1,14,20
1,0,0,15,20
1,0,1,8,21
1,0,1,9,21
1,0,0,10,21
1,0,0,11,21
1,0,0,12,21
1,0,0,13,21
1,0,1,14,21
1,0,0,15,21
1,0,2,8,22
1,0,0,9,22
1,0,0,10,22
1,0,1,11,22
1,0,2,12,22
1,0,0,13,22
1,0,0,14,22
1,0,1,15,22
1,0,2,8,23
1,0,2,9,23
1,0,2,10,23
1,0,2,11,23
1,0,2,12,23
1,0,2,13,23
1,0,2,14,23
1,0,2,15,23
0,0,12,9,19
0,0,11,9,18
0,0,12,12,19
0,0,11,12,18
1,0,2,8,24
1,0,2,9,24
1,0,2,10,24
1,0,2,11,24
1,0,2,12,24
1,0,2,13,24
1,0,2,14,24
1,0,2,15,24
1,0,2,8,25
1,0,2,9,25
1,0,2,10,25
1,0,2,11,25
1,0,2,12,25
1,0,2,13,25
1,0,2,14,25
1,0,2,15,25
1,0,2,8,26
1,0,2,9,26
1,0,2,10,26
1,0,2,11,26
1,0,2,12,26
1,0,2,13,26
1,0,2,14,26
1,0,2,15,26
1,0,2,8,27
1,0,2,9,27
1,0,2,10,27
1,0,2,11,27
1,0,2,12,27
1,0,2,13,27
1,0,2,14,27
1,0,2,15,27
1,0,2,8,28
1,0,2,9,28
1,0,2,10,28
1,0,2,11,28
1,0,2,12,28
1,0,2,13,28
1,0,2,14,28
1,0,2,15,28
1,0,2,8,29
1,0,2,9,29
1,0,2,10,29
1,0,2,11,29
1,0,2,12,29
1,0,2,13,29
1,0,2,14,29
1,0,2,15,29
1,0,2,8,30
1,0,2,9,30
1,0,2,10,30
1,0,2,11,30
1,0,2,12,30
1,0,2,13,30
1,0,2,14,30
1,0,2,15,30
1,0,2,8,31
1,0,2,9,31
1,0,2,10,31
1,0,2,11,31
1,0,2,12,31
1,0,2,13,31
1,0,2,14,31
1,0,2,15,31
1,0,4,8,32
1,0,4,9,32
1,0,4,10,32
1,0,3,11,32
1,0,3,12,32
1,0,3,13,32
1,0,3,14,32
1,0,3,15,32
1,0,4,8,33
1,0,4,9,33
1,0,4,10,33
1,0,3,11,33
1,0,3,12,33
1,0,3,13,33
1,0,3,14,33
1,0,3,15,33
1,0,4,8,34
1,0,4,9,34
1,0,4,10,34
1,0,3,11,34
1,0,3,12,34
1,0,3,13,34
1,0,3,14,34
1,0,3,15,34
1,0,3,8,35
1,0,3,9,35
1,0,3,10,35
1,0,3,11,35
1,0,3,12,35
1,0,3,13,35
1,0,3,14,35
1,0,3,15,35
1,0,3,8,36
1,0,3,9,36
1,0,3,10,36
1,0,3,11,36
1,0,5,12,36
1,0,5,13,36
1,0,5,14,36
1,0,3,15,36
1,0,3,8,37
1,0,3,9,37
1,0,3,10,37
1,0,3,11,37
1,0,5,12,37
1,0,5,13,37
1,0,5,14,37
1,0,3,15,37
1,0,3,8,38
1,0,3,9,38
1,0,3,10,38
1,0,3,11,38
1,0,5,12,38
1,0,5,13,38
1,0,5,14,38
1,0,3,15,38
1,0,3,8,39
1,0,3,9,39
1,0,3,10,39
1,0,3,11,39
1,0,3,12,39
1,0,3,13,39
1,0,3,14,39
1,0,3,15,39
1,0,4,8,40
1,0,4,9,40
1,0,4,10,40
1,0,3,11,40
1,0,3,12,40
1,0,3,13,40
1,0,3,14,40
1,0,3,15,40
1,0,4,8,41
1,0,4,9,41
1,0,4,10,41
1,0,3,11,41
1,0,3,12,41
1,0,3,13,41
1,0,3,14,41
1,0,3,15,41
1,0,4,8,42
1,0,4,9,42
1,0,4,10,42
1,0,3,11,42
1,0,3,12,42
1,0,3,13,42
1,0,3,14,42
1,0,3,15,42
1,0,3,8,43
1,0,3,9,43
1,0,3,10,43
1,0,3,11,43
1,0,3,12,43
1,0,3,13,43
1,0,3,14,43
1,0,3,15,43
1,0,3,8,44
1,0,3,9,44
1,0,3,10,44
1,0,3,11,44
1,0,5,12,44
1,0,5,13,44
1,0,5,14,44
1,0,3,15,44
1,0,3,8,45
1,0,3,9,45
1,0,3,10,45
1,0,3,11,45
1,0,5,12,45
1,0,5,13,45
1,0,5,14,45
1,0,3,15,45
1,0,3,8,46
1,0,3,9,46
1,0,3,10,46
1,0,3,11,46
1,0,5,12,46
1,0,5,13,46
1,0,5,14,46
1,0,3,15,46
1,0,3,8,47
1,0,3,9,47
1,0,3,10,47
1,0,3,11,47
1,0,3,12,47
1,0,3,13,47
1,0,3,14,47
1,0,3,15,47
1,0,1,16,20
1,0,1,17,20
1,0,1,18,20
1,0,0,19,20
1,0,0,20,20
1,0,1,21,20
1,0,0,22,20
1,0,0,23,20
1,0,1,16,21
1,0,0,17,21
1,0,0,18,21
1,0,1,19,21
1,0,1,20,21
1,0,1,21,21
1,0,0,22,21
1,0,0,23,21
1,0,1,16,22
1,0,2,17,22
1,0,0,18,22
1,0,1,19,22
1,0,2,20,22
1,0,2,21,22
1,0,0,22,22
1,0,2,23,22
1,0,2,16,23
1,0,2,17,23
1,0,2,18,23
1,0,2,19,23
1,0,2,20,23
1,0,2,21,23
1,0,2,22,23
1,0,2,23,23
0,0,12,16,19
0,0,11,16,18
0,0,12,19,19
0,0,11,19,18
1,0,2,16,24
1,0,2,17,24
1,0,2,18,24
1,0,2,19,24
1,0,2,20,24
1,0,2,21,24
1,0,2,22,24
1,0,2,23,24
1,0,2,16,25
1,0,2,17,25
1,0,2,18,25
1,0,2,19,25
1,0,2,20,25
1,0,2,21,25
1,0,2,22,25
1,0,2,23,25
1,0,2,16,26
1,0,2,17,26
1,0,2,18,26
1,0,2,19,26
1,0,2,20,26
1,0,2,21,26
1,0,2,22,26
1,0,2,23,26
1,0,2,16,27
1,0,2,17,27
1,0,2,18,27
1,0,2,19,27
1,0,2,20,27
1,0,2,21,27
1,0,2,22,27
1,0,2,23,27
1,0,2,16,28
1,0,2,17,28
1,0,2,18,28
1,0,2,19,28
1,0,2,20,28
1,0,2,21,28
1,0,2,22,28
1,0,2,23,28
1,0,2,16,29
1,0,2,17,29
1,0,2,18,29
1,0,2,19,29
1,0,2,20,29
1,0,2,21,29
1,0,2,22,29
1,0,2,23,29
1,0,2,16,30
1,0,2,17,30
1,0,2,18,30
1,0,2,19,30
1,0,2,20,30
1,0,2,21,30
1,0,2,22,30
1,0,2,23,30
1,0,2,16,31
1,0,2,17,31
1,0,2,18,31
1,0,2,19,31
1,0,2,20,31
1,0,2,21,31
1,0,2,22,31
1,0,2,23,31
1,0,4,16,32
1,0,4,17,32
1,0,4,18,32
1,0,3,19,32
1,0,3,20,32
1,0,3,21,32
1,0,3,22,32
1,0,3,23,32
1,0,4,16,33
1,0,4,17,33
1,0,4,18,33
1,0,3,19,33
1,0,3,20,33
1,0,3,21,33
1,0,3,22,33
1,0,3,23,33
1,0,4,16,34
1,0,4,17,34
1,0,4,18,34
1,0,3,19,34
1,0,3,20,34
1,0,3,21,34
1,0,3,22,34
1,0,3,23,34
1,0,3,16,35
1,0,3,17,35
1,0,3,18,35
1,0,3,19,35
1,0,3,20,35
1,0,3,21,35
1,0,3,22,35
1,0,3,23,35
1,0,3,16,36
1,0,3,17,36
1,0,3,18,36
1,0,3,19,36
1,0,5,20,36
1,0,5,21,36
1,0,5,22,36
1,0,3,23,36
1,0,3,16,37
1,0,3,17,37
1,0,3,18,37
1,0,3,19,37
1,0,5,20,37
1,0,5,21,37
1,0,5,22,37
1,0,3,23,37
1,0,3,16,38
1,0,3,17,38
1,0,3,18,38
1,0,3,19,38
1,0,5,20,38
1,0,5,21,38
1,0,5,22,38
1,0,3,23,38
1,0,3,16,39
1,0,3,17,39
1,0,3,18,39
1,0,3,19,39
1,0,3,20,39
1,0,3,21,39
1,0,3,22,39
1,0,3,23,39
1,0,4,16,40
1,0,4,17,40
1,0,4,18,40
1,0,3,19,40
1,0,3,20,40
1,0,3,21,40
1,0,3,22,40
1,0,3,23,40
1,0,4,16,41
1,0,4,17,41
1,0,4,18,41
1,0,3,19,41
1,0,3,20,41
1,0,3,21,41
1,0,3,22,41
1,0,3,23,41
1,0,4,16,42
1,0,4,17,42
1,0,4,18,42
1,0,3,19,42
1,0,3,20,42
1,0,3,21,42
1,0,3,22,42
1,0,3,23,42
1,0,3,16,43
1,0,3,17,43
1,0,3,18,43
1,0,3,19,43
1,0,3,20,43
1,0,3,21,43
1,0,3,22,43
1,0,3,23,43
1,0,3,16,44
1,0,3,17,44
1,0,3,18,44
1,0,3,19,44
1,0,5,20,44
1,0,5,21,44
1,0,5,22,44
1,0,3,23,44
1,0,3,16,45
1,0,3,17,45
1,0,3,18,45
1,0,3,19,45
1,0,5,20,45
1,0,5,21,45
1,0,5,22,45
1,0,3,23,45
1,0,3,16,46
1,0,3,17,46
1,0,3,18,46
1,0,3,19,46
1,0,5,20,46
1,0,5,21,46
1,0,5,22,46
1,0,3,23,46
1,0,3,16,47
1,0,3,17,47
1,0,3,18,47
1,0,3,19,47
1,0,3,20,47
1,0,3,21,47
1,0,3,22,47
1,0,3,23,47
1,0,1,24,21
1,0,0,25,21
1,0,1,26,21
1,0,0,27,21
1,0,1,28,21
1,0,0,29,21
1,0,1,30,21
1,0,0,31,21
1,0,0,24,22
1,0,1,25,22
1,0,0,26,22
1,0,0,27,22
1,0,0,28,22
1,0,1,29,22
1,0,1,30,22
1,0,0,31,22
1,0,2,24,23
1,0,0,25,23
1,0,2,26,23
1,0,1,27,23
1,0,1,28,23
1,0,0,29,23
1,0,0,30,23
1,0,1,31,23
0,0,12,30,20
0,0,11,30,19
1,0,2,24,24
1,0,2,25,24
1,0,2,26,24
1,0,2,27,24
1,0,2,28,24
1,0,2,29,24
1,0,2,30,24
1,0,2,31,24
1,0,2,24,25
1,0,2,25,25
1,0,2,26,25
1,0,2,27,25
1,0,2,28,25
1,0,2,29,25
1,0,2,30,25
1,0,2,31,25
1,0,2,24,26
1,0,2,25,26
1,0,2,26,26
1,0,2,27,26
1,0,2,28,26
1,0,2,29,26
1,0,2,30,26
1,0,2,31,26
1,0,2,24,27
1,0,2,25,27
1,0,2,26,27
1,0,2,27,27
1,0,2,28,27
1,0,2,29,27
1,0,2,30,27
1,0,2,31,27
1,0,2,24,28
1,0,2,25,28
1,0,2,26,28
1,0,2,27,28
1,0,2,28,28
1,0,2,29,28
1,0,2,30,28
1,0,2,31,28
1,0,2,24,29
1,0,2,25,29
1,0,2,26,29
1,0,2,27,29
1,0,2,28,29
1,0,2,29,29
1,0,2,30,29
1,0,2,31,29
1,0,2,24,30
1,0,2,25,30
1,0,2,26,30
1,0,2,27,30
1,0,2,28,30
1,0,2,29,30
1,0,2,30,30
1,0,2,31,30
1,0,2,24,31
1,0,2,25,31
1,0,2,26,31
1,0,2,27,31
1,0,2,28,31
1,0,2,29,31
1,0,2,30,31
1,0,2,31,31
1,0,4,24,32
1,0,4,25,32
1,0,4,26,32
1,0,3,27,32
1,0,3,28,32
1,0,3,29,32
1,0,3,30,32
1,0,3,31,32
1,0,4,24,33
1,0,4,25,33
1,0,4,26,33
1,0,3,27,33
1,0,3,28,33
1,0,3,29,33
1,0,3,30,33
1,0,3,31,33
1,0,4,24,34
1,0,4,25,34
1,0,4,26,34
1,0,3,27,34
1,0,3,28,34
1,0,3,29,34
1,0,3,30,34
1,0,3,31,34
1,0,3,24,35
1,0,3,25,35
1,0,3,26,35
1,0,3,27,35
1,0,3,28,35
1,0,3,29,35
1,0,3,30,35
1,0,3,31,35
1,0,3,24,36
1,0,3,25,36
1,0,3,26,36
1,0,3,27,36
1,0,5,28,36
1,0,5,29,36
1,0,5,30,36
1,0,3,31,36
1,0,3,24,37
1,0,3,25,37
1,0,3,26,37
1,0,3,27,37
1,0,5,28,37
1,0,5,29,37
1,0,5,30,37
1,0,3,31,37
1,0,3,24,38
1,0,3,25,38
1,0,3,26,38
1,0,3,27,38
1,0,5,28,38
1,0,5,29,38
1,0,5,30,38
1,0,3,31,38
1,0,3,24,39
1,0,3,25,39
1,0,3,26,39
1,0,3,27,39
1,0,3,28,39
1,0,3,29,39
1,0,3,30,39
1,0,3,31,39
1,0,4,24,40
1,0,4,25,40
1,0,4,26,40
1,0,3,27,40
1,0,3,28,40
1,0,3,29,40
1,0,3,30,40
1,0,3,31,40
1,0,4,24,41
1,0,4,25,41
1,0,4,26,41
1,0,3,27,41
1,0,3,28,41
1,0,3,29,41
1,0,3,30,41
1,0,3,31,41
1,0,4,24,42
1,0,4,25,42
1,0,4,26,42
1,0,3,27,42
1,0,3,28,42
1,0,3,29,42
1,0,3,30,42
1,0,3,31,42
1,0,3,24,43
1,0,3,25,43
1,0,3,26,43
1,0,3,27,43
1,0,3,28,43
1,0,3,29,43
1,0,3,30,43
1,0,3,31,43
1,0,3,24,44
1,0,3,25,44
1,0,3,26,44
1,0,3,27,44
1,0,5,28,44
1,0,5,29,44
1,0,5,30,44
1,0,3,31,44
1,0,3,24,45
1,0,3,25,45
1,0,3,26,45
1,0,3,27,45
1,0,5,28,45
1,0,5,29,45
1,0,5,30,45
1,0,3,31,45
1,0,3,24,46
1,0,3,25,46
1,0,3,26,46
1,0,3,27,46
1,0,5,28,46
1,0,5,29,46
1,0,5,30,46
1,0,3,31,46
1,0,3,24,47
1,0,3,25,47
1,0,3,26,47
1,0,3,27,47
1,0,3,28,47
1,0,3,29,47
1,0,3,30,47
1,0,3,31,47
1,0,0,32,20
1,0,1,33,20
1,0,0,34,20
1,0,0,35,20
1,0,0,36,20
1,0,0,37,20
1,0,1,38,20
1,0,0,39,20
1,0,0,32,21
1,0,0,33,21
1,0,0,34,21
1,0,1,35,21
1,0,0,36,21
1,0,0,37,21
1,0,0,38,21
1,0,0,39,21
1,0,2,32,22
1,0,2,33,22
1,0,2,34,22
1,0,2,35,22
1,0,2,36,22
1,0,2,37,22
1,0,2,38,22
1,0,2,39,22
1,0,2,32,23
1,0,2,33,23
1,0,2,34,23
1,0,2,35,23
1,0,2,36,23
1,0,2,37,23
1,0,2,38,23
1,0,2,39,23
0,0,12,32,19
0,0,11,32,18
0,0,12,38,19
0,0,11,38,18
1,0,2,32,24
1,0,2,33,24
1,0,2,34,24
1,0,2,35,24
1,0,2,36,24
1,0,2,37,24
1,0,2,38,24
1,0,2,39,24
1,0,2,32,25
1,0,2,33,25
1,0,2,34,25
1,0,2,35,25
1,0,2,36,25
1,0,2,37,25
1,0,2,38,25
1,0,2,39,25
1,0,2,32,26
1,0,2,33,26
1,0,2,34,26
1,0,2,35,26
1,0,2,36,26
1,0,2,37,26
1,0,2,38,26
1,0,2,39,26
1,0,2,32,27
1,0,2,33,27
1,0,2,34,27
1,0,2,35,27
1,0,2,36,27
1,0,2,37,27
1,0,2,38,27
1,0,2,39,27
1,0,2,32,28
1,0,2,33,28
1,0,2,34,28
1,0,2,35,28
1,0,2,36,28
1,0,2,37,28
1,0,2,38,28
1,0,2,39,28
1,0,2,32,29
1,0,2,33,29
1,0,2,34,29
1,0,2,35,29
1,0,2,36,29
1,0,2,37,29
1,0,2,38,29
1,0,2,39,29
1,0,2,32,30
1,0,2,33,30
1,0,2,34,30
1,0,2,35,30
1,0,2,36,30
1,0,2,37,30
1,0,2,38,30
1,0,2,39,30
1,0,2,32,31
1,0,2,33,31
1,0,2,34,31
1,0,2,35,31
1,0,2,36,31
1,0,2,37,31
1,0,2,38,31
1,0,2,39,31
1,0,4,32,32
1,0,4,33,32
1,0,4,34,32
1,0,3,35,32
1,0,3,36,32
1,0,3,37,32
1,0,3,38,32
1,0,3,39,32
1,0,4,32,33
1,0,4,33,33
1,0,4,34,33
1,0,3,35,33
1,0,3,36,33
1,0,3,37,33
1,0,3,38,33
1,0,3,39,33
1,0,4,32,34
1,0,4,33,34
1,0,4,34,34
1,0,3,35,34
1,0,3,36,34
1,0,3,37,34
1,0,3,38,34
1,0,3,39,34
1,0,3,32,35
1,0,3,33,35
1,0,3,34,35
1,0,3,35,35
1,0,3,36,35
1,0,3,37,35
1,0,3,38,35
1,0,3,39,35
1,0,3,32,36
1,0,3,33,36
1,0,3,34,36
1,0,3,35,36
1,0,5,36,36
1,0,5,37,36
1,0,5,38,36
1,0,3,39,36
1,0,3,32,37
1,0,3,33,37
1,0,3,34,37
1,0,3,35,37
1,0,5,36,37
1,0,5,37,37
1,0,5,38,37
1,0,3,39,37
1,0,3,32,38
1,0,3,33,38
1,0,3,34,38
1,0,3,35,38
1,0,5,36,38
1,0,5,37,38
1,0,5,38,38
1,0,3,39,38
1,0,3,32,39
1,0,3,33,39
1,0,3,34,39
1,0,3,35,39
1,0,3,36,39
1,0,3,37,39
1,0,3,38,39
1,0,3,39,39
1,0,4,32,40
1,0,4,33,40
1,0,4,34,40
1,0,3,35,40
1,0,3,36,40
1,0,3,37,40
1,0,3,38,40
1,0,3,39,40
1,0,4,32,41
1,0,4,33,41
1,0,4,34,41
1,0,3,35,41
1,0,3,36,41
1,0,3,37,41
1,0,3,38,41
1,0,3,39,41
1,0,4,32,42
1,0,4,33,42
1,0,4,34,42
1,0,3,35,42
1,0,3,36,42
1,0,3,37,42
1,0,3,38,42
1,0,3,39,42
1,0,3,32,43
1,0,3,33,43
1,0,3,34,43
1,0,3,35,43
1,0,3,36,43
1,0,3,37,43
1,0,3,38,43
1,0,3,39,43
1,0,3,32,44
1,0,3,33,44
1,0,3,34,44
1,0,3,35,44
1,0,5,36,44
1,0,5,37,44
1,0,5,38,44
1,0,3,39,44
1,0,3,32,45
1,0,3,33,45
1,0,3,34,45
1,0,3,35,45
1,0,5,36,45
1,0,5,37,45
1,0,5,38,45
1,0,3,39,45
1,0,3,32,46
1,0,3,33,46
1,0,3,34,46
1,0,3,35,46
1,0,5,36,46
1,0,5,37,46
1,0,5,38,46
1,0,3,39,46
1,0,3,32,47
1,0,3,33,47
1,0,3,34,47
1,0,3,35,47
1,0,3,36,47
1,0,3,37,47
1,0,3,38,47
1,0,3,39,47
1,0,0,40,20
1,0,0,41,20
1,0,0,42,20
1,0,1,43,20
1,0,0,44,20
1,0,0,45,20
1,0,0,46,20
1,0,0,47,20
1,0,0,40,21
1,0,0,41,21
1,0,0,42,21
1,0,0,43,21
1,0,0,44,21
1,0,0,45,21
1,0,0,46,21
1,0,0,47,21
1,0,0,40,22
1,0,0,41,22
1,0,2,42,22
1,0,0,43,22
1,0,2,44,22
1,0,2,45,22
1,0,2,46,22
1,0,0,47,22
1,0,2,40,23
1,0,2,41,23
1,0,2,42,23
1,0,2,43,23
1,0,2,44,23
1,0,2,45,23
1,0,2,46,23
1,0,2,47,23
0,0,12,40,19
0,0,11,40,18
0,0,12,43,19
0,0,11,43,18
1,0,2,40,24
1,0,2,41,24
1,0,2,42,24
1,0,2,43,24
1,0,2,44,24
1,0,2,45,24
1,0,2,46,24
1,0,2,47,24
1,0,2,40,25
1,0,2,41,25
1,0,2,42,25
1,0,2,43,25
1,0,2,44,25
1,0,2,45,25
1,0,2,46,25
1,0,2,47,25
1,0,2,40,26
1,0,2,41,26
1,0,2,42,26
1,0,2,43,26
1,0,2,44,26
1,0,2,45,26
1,0,2,46,26
1,0,2,47,26
1,0,2,40,27
1,0,2,41,27
1,0,2,42,27
1,0,2,43,27
1,0,2,44,27
1,0,2,45,27
1,0,2,46,27
1,0,2,47,27
1,0,2,40,28
1,0,2,41,28
1,0,2,42,28
1,0,2,43,28
1,0,2,44,28
1,0,2,45,28
1,0,2,46,28
1,0,2,47,28
1,0,2,40,29
1,0,2,41,29
1,0,2,42,29
1,0,2,43,29
1,0,2,44,29
1,0,2,45,29
1,0,2,46,29
1,0,2,47,29
1,0,2,40,30
1,0,2,41,30
1,0,2,42,30
1,0,2,43,30
1,0,2,44,30
1,0,2,45,30
1,0,2,46,30
1,0,2,47,30
1,0,2,40,31
1,0,2,41,31
1,0,2,42,31
1,0,2,43,31
1,0,2,44,31
1,0,2,45,31
1,0,2,46,31
1,0,2,47,31
1,0,4,40,32
1,0,4,41,32
1,0,4,42,32
1,0,3,43,32
1,0,3,44,32
1,0,3,45,32
1,0,3,46,32
1,0,3,47,32
1,0,4,40,33
1,0,4,41,33
1,0,4,42,33
1,0,3,43,33
1,0,3,44,33
1,0,3,45,33
1,0,3,46,33
1,0,3,47,33
1,0,4,40,34
1,0,4,41,34
1,0,4,42,34
1,0,3,43,34
1,0,3,44,34
1,0,3,45,34
1,0,3,46,34
1,0,3,47,34
1,0,3,40,35
1,0,3,41,35
1,0,3,42,35
1,0,3,43,35
1,0,3,44,35
1,0,3,45,35
1,0,3,46,35
1,0,3,47,35
1,0,3,40,36
1,0,3,41,36
1,0,3,42,36
1,0,3,43,36
1,0,5,44,36
1,0,5,45,36
1,0,5,46,36
1,0,3,47,36
1,0,3,40,37
1,0,3,41,37
1,0,3,42,37
1,0,3,43,37
1,0,5,44,37
1,0,5,45,37
1,0,5,46,37
1,0,3,47,37
1,0,3,40,38
1,0,3,41,38
1,0,3,42,38
1,0,3,43,38
1,0,5,44,38
1,0,5,45,38
1,0,5,46,38
1,0,3,47,38
1,0,3,40,39
1,0,3,41,39
1,0,3,42,39
1,0,3,43,39
1,0,3,44,39
1,0,3,45,39
1,0,3,46,39
1,0,3,47,39
1,0,4,40,40
1,0,4,41,40
1,0,4,42,40
1,0,3,43,40
1,0,3,44,40
1,0,3,45,40
1,0,3,46,40
1,0,3,47,40
1,0,4,40,41
1,0,4,41,41
1,0,4,42,41
1,0,3,43,41
1,0,3,44,41
1,0,3,45,41
1,0,3,46,41
1,0,3,47,41
1,0,4,40,42
1,0,4,41,42
1,0,4,42,42
1,0,3,43,42
1,0,3,44,42
1,0,3,45,42
1,0,3,46,42
1,0,3,47,42
1,0,3,40,43
1,0,3,41,43
1,0,3,42,43
1,0,3,43,43
1,0,3,44,43
1,0,3,45,43
1,0,3,46,43
1,0,3,47,43
1,0,3,40,44
1,0,3,41,44
1,0,3,42,44
1,0,3,43,44
1,0,5,44,44
1,0,5,45,44
1,0,5,46,44
1,0,3,47,44
1,0,3,40,45
1,0,3,41,45
1,0,3,42,45
1,0,3,43,45
1,0,5,44,45
1,0,5,45,45
1,0,5,46,45
1,0,3,47,45
1,0,3,40,46
1,0,3,41,46
1,0,3,42,46
1,0,3,43,46
1,0,5,44,46
1,0,5,45,46
1,0,5,46,46
1,0,3,47,46
1,0,3,40,47
1,0,3,41,47
1,0,3,42,47
1,0,3,43,47
1,0,3,44,47
1,0,3,45,47
1,0,3,46,47
1,0,3,47,47
1,0,0,48,19
1,0,0,49,19
1,0,0,50,19
1,0,0,51,19
1,0,1,52,19
1,0,1,53,19
1,0,0,54,19
1,0,0,55,19
1,0,0,48,20
1,0,0,49,20
1,0,0,50,20
1,0,1,51,20
1,0,0,52,20
1,0,0,53,20
1,0,0,54,20
1,0,0,55,20
1,0,1,48,21
1,0,0,49,21
1,0,2,50,21
1,0,2,51,21
1,0,2,52,21
1,0,0,53,21
1,0,0,54,21
1,0,2,55,21
1,0,2,48,22
1,0,2,49,22
1,0,2,50,22
1,0,2,51,22
1,0,2,52,22
1,0,2,53,22
1,0,2,54,22
1,0,2,55,22
1,0,2,48,23
1,0,2,49,23
1,0,2,50,23
1,0,2,51,23
1,0,2,52,23
1,0,2,53,23
1,0,2,54,23
1,0,2,55,23
1,0,2,48,24
1,0,2,49,24
1,0,2,50,24
1,0,2,51,24
1,0,2,52,24
1,0,2,53,24
1,0,2,54,24
1,0,2,55,24
1,0,2,48,25
1,0,2,49,25
1,0,2,50,25
1,0,2,51,25
1,0,2,52,25
1,0,2,53,25
1,0,2,54,25
1,0,2,55,25
1,0,2,48,26
1,0,2,49,26
1,0,2,50,26
1,0,2,51,26
1,0,2,52,26
1,0,2,53,26
1,0,2,54,26
1,0,2,55,26
1,0,2,48,27
1,0,2,49,27
1,0,2,50,27
1,0,2,51,27
1,0,2,52,27
1,0,2,53,27
1,0,2,54,27
1,0,2,55,27
1,0,2,48,28
1,0,2,49,28
1,0,2,50,28
1,0,2,51,28
1,0,2,52,28
1,0,2,53,28
1,0,2,54,28
1,0,2,55,28
1,0,2,48,29
1,0,2,49,29
1,0,2,50,29
1,0,2,51,29
1,0,2,52,29
1,0,2,53,29
1,0,2,54,29
1,0,2,55,29
1,0,2,48,30
1,0,2,49,30
1,0,2,50,30
1,0,2,51,30
1,0,2,52,30
1,0,2,53,30
1,0,2,54,30
1,0,2,55,30
1,0,2,48,31
1,0,2,49,31
1,0,2,50,31
1,0,2,51,31
1,0,2,52,31
1,0,2,53,31
1,0,2,54,31
1,0,2,55,31
1,0,4,48,32
1,0,4,49,32
1,0,4,50,32
1,0,3,51,32
1,0,3,52,32
1,0,3,53,32
1,0,3,54,32
1,0,3,55,32
1,0,4,48,33
1,0,4,49,33
1,0,4,50,33
1,0,3,51,33
1,0,3,52,33
1,0,3,53,33
1,0,3,54,33
1,0,3,55,33
1,0,4,48,34
1,0,4,49,34
1,0,4,50,34
1,0,3,51,34
1,0,3,52,34
1,0,3,53,34
1,0,3,54,34
1,0,3,55,34
1,0,3,48,35
1,0,3,49,35
1,0,3,50,35
1,0,3,51,35
1,0,3,52,35
1,0,3,53,35
1,0,3,54,35
1,0,3,55,35
1,0,3,48,36
1,0,3,49,36
1,0,3,50,36
1,0,3,51,36
1,0,5,52,36
1,0,5,53,36
1,0,5,54,36
1,0,3,55,36
1,0,3,48,37
1,0,3,49,37
1,0,3,50,37
1,0,3,51,37
1,0,5,52,37
1,0,5,53,37
1,0,5,54,37
1,0,3,55,37
1,0,3,48,38
1,0,3,49,38
1,0,3,50,38
1,0,3,51,38
1,0,5,52,38
1,0,5,53,38
1,0,5,54,38
1,0,3,55,38
1,0,3,48,39
1,0,3,49,39
1,0,3,50,39
1,0,3,51,39
1,0,3,52,39
1,0,3,53,39
1,0,3,54,39
1,0,3,55,39
1,0,4,48,40
1,0,4,49,40
1,0,4,50,40
1,0,3,51,40
1,0,3,52,40
1,0,3,53,40
1,0,3,54,40
1,0,3,55,40
1,0,4,48,41
1,0,4,49,41
1,0,4,50,41
1,0,3,51,41
1,0,3,52,41
1,0,3,53,41
1,0,3,54,41
1,0,3,55,41
1,0,4,48,42
1,0,4,49,42
1,0,4,50,42
1,0,3,51,42
1,0,3,52,42
1,0,3,53,42
1,0,3,54,42
1,0,3,55,42
1,0,3,48,43
1,0,3,49,43
1,0,3,50,43
1,0,3,51,43
1,0,3,52,43
1,0,3,53,43
1,0,3,54,43
1,0,3,55,43
1,0,3,48,44
1,0,3,49,44
1,0,3,50,44
1,0,3,51,44
1,0,5,52,44
1,0,5,53,44
1,0,5,54,44
1,0,3,55,44
1,0,3,48,45
1,0,3,49,45
1,0,3,50,45
1,0,3,51,45
1,0,5,52,45
1,0,5,53,45
1,0,5,54,45
1,0,3,55,45
1,0,3,48,46
1,0,3,49,46
1,0,3,50,46
1,0,3,51,46
1,0,5,52,46
1,0,5,53,46
1,0,5,54,46
1,0,3,55,46
1,0,3,48,47
1,0,3,49,47
1,0,3,50,47
1,0,3,51,47
1,0,3,52,47
1,0,3,53,47
1,0,3,54,47
1,0,3,55,47
1,0,0,56,18
1,0,0,57,18
1,0,0,58,18
1,0,1,59,18
1,0,1,60,18
1,0,1,61,18
1,0,0,62,18
1,0,1,63,18
1,0,0,56,19
1,0,0,57,19
1,0,0,58,19
1,0,1,59,19
1,0,1,60,19
1,0,1,61,19
1,0,0,62,19
1,0,1,63,19
1,0,2,56,20
1,0,0,57,20
1,0,2,58,20
1,0,2,59,20
1,0,2,60,20
1,0,0,61,20
1,0,2,62,20
1,0,0,63,20
1,0,2,56,21
1,0,2,57,21
1,0,2,58,21
1,0,2,59,21
1,0,2,60,21
1,0,2,61,21
1,0,2,62,21
1,0,2,63,21
1,0,2,56,22
1,0,2,57,22
1,0,2,58,22
1,0,2,59,22
1,0,2,60,22
1,0,2,61,22
1,0,2,62,22
1,0,2,63,22
1,0,2,56,23
1,0,2,57,23
1,0,2,58,23
1,0,2,59,23
1,0,2,60,23
1,0,2,61,23
1,0,2,62,23
1,0,2,63,23
0,0,12,59,17
0,0,11,59,16
1,0,2,56,24
1,0,2,57,24
1,0,2,58,24
1,0,2,59,24
1,0,2,60,24
1,0,2,61,24
1,0,2,62,24
1,0,2,63,24
1,0,2,56,25
1,0,2,57,25
1,0,2,58,25
1,0,2,59,25
1,0,2,60,25
1,0,2,61,25
1,0,2,62,25
1,0,2,63,25
1,0,2,56,26
1,0,2,57,26
1,0,2,58,26
1,0,2,59,26
1,0,2,60,26
1,0,2,61,26
1,0,2,62,26
1,0,2,63,26
1,0,2,56,27
1,0,2,57,27
1,0,2,58,27
1,0,2,59,27
1,0,2,60,27
1,0,2,61,27
1,0,2,62,27
1,0,2,63,27
1,0,2,56,28
1,0,2,57,28
1,0,2,58,28
1,0,2,59,28
1,0,2,60,28
1,0,2,61,28
1,0,2,62,28
1,0,2,63,28
1,0,2,56,29
1,0,2,57,29
1,0,2,58,29
1,0,2,59,29
1,0,2,60,29
1,0,2,61,29
1,0,2,62,29
1,0,2,63,29
1,0,2,56,30
1,0,2,57,30
1,0,2,58,30
1,0,2,59,30
1,0,2,60,30
1,0,2,61,30
1,0,2,62,30
1,0,2,63,30
1,0,2,56,31
1,0,2,57,31
1,0,2,58,31
1,0,2,59,31
1,0,2,60,31
1,0,2,61,31
1,0,2,62,31
1,0,2,63,31
1,0,4,56,32
1,0,4,57,32
1,0,4,58,32
1,0,3,59,32
1,0,3,60,32
1,0,3,61,32
1,0,3,62,32
1,0,3,63,32
1,0,4,56,33
1,0,4,57,33
1,0,4,58,33
1,0,3,59,33
1,0,3,60,33
1,0,3,61,33
1,0,3,62,33
1,0,3,63,33
1,0,4,56,34
1,0,4,57,34
1,0,4,58,34
1,0,3,59,34
1,0,3,60,34
1,0,3,61,34
1,0,3,62,34
1,0,3,63,34
1,0,3,56,35
1,0,3,57,35
1,0,3,58,35
1,0,3,59,35
1,0,3,60,35
1,0,3,61,35
1,0,3,62,35
1,0,3,63,35
1,0,3,56,36
1,0,3,57,36
1,0,3,58,36
1,0,3,59,36
1,0,5,60,36
1,0,5,61,36
1,0,5,62,36
1,0,3,63,36
1,0,3,56,37
1,0,3,57,37
1,0,3,58,37
1,0,3,59,37
1,0,5,60,37
1,0,5,61,37
1,0,5,62,37
1,0,3,63,37
1,0,3,56,38
1,0,3,57,38
1,0,3,58,38
1,0,3,59,38
1,0,5,60,38
1,0,5,61,38
1,0,5,62,38
1,0,3,63,38
1,0,3,56,39
1,0,3,57,39
1,0,3,58,39
1,0,3,59,39
1,0,3,60,39
1,0,3,61,39
1,0,3,62,39
1,0,3,63,39
1,0,4,56,40
1,0,4,57,40
1,0,4,58,40
1,0,3,59,40
1,0,3,60,40
1,0,3,61,40
1,0,3,62,40
1,0,3,63,40
1,0,4,56,41
1,0,4,57,41
1,0,4,58,41
1,0,3,59,41
1,0,3,60,41
1,0,3,61,41
1,0,3,62,41
1,0,3,63,41
1,0,4,56,42
1,0,4,57,42
1,0,4,58,42
1,0,3,59,42
1,0,3,60,42
1,0,3,61,42
1,0,3,62,42
1,0,3,63,42
1,0,3,56,43
1,0,3,57,43
1,0,3,58,43
1,0,3,59,43
1,0,3,60,43
1,0,3,61,43
1,0,3,62,43
1,0,3,63,43
1,0,3,56,44
1,0,3,57,44
1,0,3,58,44
1,0,3,59,44
1,0,5,60,44
1,0,5,61,44
1,0,5,62,44
1,0,3,63,44
1,0,3,56,45
1,0,3,57,45
1,0,3,58,45
1,0,3,59,45
1,0,5,60,45
1,0,5,61,45
1,0,5,62,45
1,0,3,63,45
1,0,3,56,46
1,0,3,57,46
1,0,3,58,46
1,0,3,59,46
1,0,5,60,46
1,0,5,61,46
1,0,5,62,46
1,0,3,63,46
1,0,3,56,47
1,0,3,57,47
1,0,3,58,47
1,0,3,59,47
1,0,3,60,47
1,0,3,61,47
1,0,3,62,47
1,0,3,63,47
